50, 657
24, 29
34, 39
18, 23
42, 47
12, 17
26, 31
14, 19
36, 41
34, 39
6, 11
14, 19
22, 27
46, 51
2, 7
50, 55
4, 9
26, 31
44, 49
46, 51
44, 49
12, 17
28, 33
16, 21
10, 15
4, 9
12, 17
28, 33
32, 37
22, 27
4, 9
36, 41
10, 15
38, 43
44, 49
44, 49
44, 49
40, 45
26, 31
12, 17
18, 23
40, 45
10, 15
46, 51
40, 45
4, 9
12, 17
44, 49
14, 19
40, 45
38, 43
